p tdp 40 40
1 28
1 29
2 14
2 29
3 32
3 36
4 12
4 19
5 20
5 38
6 11
6 27
7 31
7 36
8 16
8 40
9 24
9 34
10 21
10 24
11 32
12 23
13 15
13 38
14 27
15 35
16 37
17 22
17 30
18 30
18 34
19 26
20 37
21 40
22 25
23 28
25 33
26 39
31 35
33 39
